# Solution for model earliness
# Objective value = 8.7040000000002706e+00
E(i1) 0
E(i2) 3.5527136788005009e-15
E(i3) 1.0430000000000810e+00
E(i4) 5.0000000000002132e-01
E(i5) 0
E(i6) 1.5000000000000178e+00
E(i7) 0
E(i8) 3.5527136788005009e-15
E(i9) 0
E(i10) 0
E(i11) 2.2820000000000427e+00
E(i12) 0
E(i13) 7.1054273576010019e-15
E(i14) 2.5160000000000302e+00
E(i15) 8.6300000000006349e-01
Y(i1,u1) 1
Y(i1,u4) 0
Y(i2,u1) 1
Y(i2,u4) 0
Y(i3,u1) 0
Y(i3,u4) 1
Y(i4,u3) 1
Y(i4,u4) 0
Y(i5,u3) 0
Y(i5,u4) 1
Y(i6,u1) 1
Y(i6,u4) 0
Y(i7,u1) 0
Y(i7,u3) 1
Y(i7,u4) 0
Y(i8,u3) 1
Y(i8,u4) 0
Y(i9,u3) 1
Y(i9,u4) 0
Y(i10,u2) 1
Y(i11,u2) 1
Y(i11,u4) 0
Y(i12,u2) 1
Y(i12,u3) 0
Y(i12,u4) 0
Y(i13,u1) 0
Y(i13,u4) 1
Y(i14,u1) 0
Y(i14,u4) 1
Y(i15,u1) 1
Y(i15,u4) 0
C(i1) 15
C(i2) 2.9999999999999996e+01
C(i3) 2.0956999999999919e+01
C(i4) 2.4499999999999979e+01
C(i5) 20
C(i6) 2.8499999999999982e+01
C(i7) 21
C(i8) 2.5999999999999996e+01
C(i9) 30
C(i10) 29
C(i11) 2.7717999999999957e+01
C(i12) 21
C(i13) 2.9999999999999993e+01
C(i14) 2.2483999999999970e+01
C(i15) 2.3136999999999937e+01
Seq(i1,i2,u1) 0
X(i1,i2,u1) 1
Seq(i1,i2,u4) 0
X(i1,i2,u4) 0
X(i1,i3,u1) 0
X(i1,i3,u4) 0
Seq(i1,i4,u4) 0
X(i1,i4,u4) 0
Seq(i1,i5,u4) 0
X(i1,i5,u4) 0
Seq(i1,i6,u1) 0
X(i1,i6,u1) 1
Seq(i1,i6,u4) 0
X(i1,i6,u4) 0
X(i1,i7,u1) 0
X(i1,i7,u4) 0
Seq(i1,i8,u4) 0
X(i1,i8,u4) 0
X(i1,i9,u4) 0
Seq(i1,i11,u4) 0
X(i1,i11,u4) 0
Seq(i1,i12,u4) 0
X(i1,i12,u4) 0
Seq(i1,i13,u1) 0
X(i1,i13,u1) 0
Seq(i1,i13,u4) 0
X(i1,i13,u4) 0
Seq(i1,i14,u1) 0
X(i1,i14,u1) 0
Seq(i1,i14,u4) 0
X(i1,i14,u4) 0
Seq(i1,i15,u1) 1
X(i1,i15,u1) 1
Seq(i1,i15,u4) 0
X(i1,i15,u4) 0
Seq(i2,i1,u1) 0
X(i2,i1,u1) 0
Seq(i2,i1,u4) 0
X(i2,i1,u4) 0
Seq(i2,i3,u1) 0
X(i2,i3,u1) 0
Seq(i2,i3,u4) 0
X(i2,i3,u4) 0
Seq(i2,i4,u4) 0
X(i2,i4,u4) 0
Seq(i2,i5,u4) 0
X(i2,i5,u4) 0
Seq(i2,i6,u1) 0
X(i2,i6,u1) 0
Seq(i2,i6,u4) 1
X(i2,i6,u4) 0
Seq(i2,i7,u1) 0
X(i2,i7,u1) 0
Seq(i2,i7,u4) 0
X(i2,i7,u4) 0
Seq(i2,i8,u4) 0
X(i2,i8,u4) 0
Seq(i2,i9,u4) 0
X(i2,i9,u4) 0
Seq(i2,i11,u4) 0
X(i2,i11,u4) 0
Seq(i2,i12,u4) 0
X(i2,i12,u4) 0
Seq(i2,i13,u1) 0
X(i2,i13,u1) 0
Seq(i2,i13,u4) 0
X(i2,i13,u4) 0
Seq(i2,i14,u1) 0
X(i2,i14,u1) 0
Seq(i2,i14,u4) 0
X(i2,i14,u4) 0
Seq(i2,i15,u1) 0
X(i2,i15,u1) 0
Seq(i2,i15,u4) 0
X(i2,i15,u4) 0
Seq(i3,i1,u1) 0
X(i3,i1,u1) 0
Seq(i3,i1,u4) 0
X(i3,i1,u4) 0
Seq(i3,i2,u1) 0
X(i3,i2,u1) 0
Seq(i3,i2,u4) 0
X(i3,i2,u4) 0
Seq(i3,i4,u4) 0
X(i3,i4,u4) 0
Seq(i3,i5,u4) 0
X(i3,i5,u4) 0
Seq(i3,i6,u1) 0
X(i3,i6,u1) 0
Seq(i3,i6,u4) 0
X(i3,i6,u4) 0
Seq(i3,i7,u1) 0
X(i3,i7,u1) 0
Seq(i3,i7,u4) 0
X(i3,i7,u4) 0
Seq(i3,i8,u4) 0
X(i3,i8,u4) 0
Seq(i3,i9,u4) 0
X(i3,i9,u4) 0
Seq(i3,i11,u4) 0
X(i3,i11,u4) 0
Seq(i3,i12,u4) 0
X(i3,i12,u4) 0
Seq(i3,i13,u1) 0
X(i3,i13,u1) 0
Seq(i3,i13,u4) 0
X(i3,i13,u4) 1
X(i3,i14,u1) 0
X(i3,i14,u4) 1
X(i3,i15,u1) 0
X(i3,i15,u4) 0
Seq(i4,i1,u4) 0
X(i4,i1,u4) 0
Seq(i4,i2,u4) 0
X(i4,i2,u4) 0
Seq(i4,i3,u4) 0
X(i4,i3,u4) 0
Seq(i4,i5,u3) 0
X(i4,i5,u3) 0
Seq(i4,i5,u4) 0
X(i4,i5,u4) 0
Seq(i4,i6,u4) 0
X(i4,i6,u4) 0
Seq(i4,i7,u3) 0
X(i4,i7,u3) 0
Seq(i4,i7,u4) 0
X(i4,i7,u4) 0
X(i4,i8,u3) 1
X(i4,i8,u4) 0
Seq(i4,i9,u3) 0
X(i4,i9,u3) 1
Seq(i4,i9,u4) 0
X(i4,i9,u4) 0
Seq(i4,i11,u4) 0
X(i4,i11,u4) 0
Seq(i4,i12,u3) 0
X(i4,i12,u3) 0
Seq(i4,i12,u4) 0
X(i4,i12,u4) 0
Seq(i4,i13,u4) 0
X(i4,i13,u4) 0
Seq(i4,i14,u4) 0
X(i4,i14,u4) 0
Seq(i4,i15,u4) 0
X(i4,i15,u4) 0
Seq(i5,i1,u4) 0
X(i5,i1,u4) 0
Seq(i5,i2,u4) 0
X(i5,i2,u4) 0
X(i5,i3,u4) 1
Seq(i5,i4,u3) 0
X(i5,i4,u3) 0
Seq(i5,i4,u4) 0
X(i5,i4,u4) 0
Seq(i5,i6,u4) 0
X(i5,i6,u4) 0
Seq(i5,i7,u3) 0
X(i5,i7,u3) 0
Seq(i5,i7,u4) 0
X(i5,i7,u4) 0
Seq(i5,i8,u3) 0
X(i5,i8,u3) 0
Seq(i5,i8,u4) 0
X(i5,i8,u4) 0
Seq(i5,i9,u3) 0
X(i5,i9,u3) 0
Seq(i5,i9,u4) 0
X(i5,i9,u4) 0
Seq(i5,i11,u4) 0
X(i5,i11,u4) 0
Seq(i5,i12,u3) 0
X(i5,i12,u3) 0
Seq(i5,i12,u4) 0
X(i5,i12,u4) 0
Seq(i5,i13,u4) 0
X(i5,i13,u4) 1
Seq(i5,i14,u4) 0
X(i5,i14,u4) 1
Seq(i5,i15,u4) 0
X(i5,i15,u4) 0
Seq(i6,i1,u1) 0
X(i6,i1,u1) 0
Seq(i6,i1,u4) 0
X(i6,i1,u4) 0
X(i6,i2,u1) 1
X(i6,i2,u4) 0
Seq(i6,i3,u1) 0
X(i6,i3,u1) 0
Seq(i6,i3,u4) 0
X(i6,i3,u4) 0
Seq(i6,i4,u4) 0
X(i6,i4,u4) 0
Seq(i6,i5,u4) 0
X(i6,i5,u4) 0
Seq(i6,i7,u1) 0
X(i6,i7,u1) 0
Seq(i6,i7,u4) 0
X(i6,i7,u4) 0
Seq(i6,i8,u4) 0
X(i6,i8,u4) 0
Seq(i6,i9,u4) 0
X(i6,i9,u4) 0
Seq(i6,i11,u4) 0
X(i6,i11,u4) 0
Seq(i6,i12,u4) 0
X(i6,i12,u4) 0
Seq(i6,i13,u1) 0
X(i6,i13,u1) 0
Seq(i6,i13,u4) 0
X(i6,i13,u4) 0
Seq(i6,i14,u1) 0
X(i6,i14,u1) 0
Seq(i6,i14,u4) 0
X(i6,i14,u4) 0
Seq(i6,i15,u1) 0
X(i6,i15,u1) 0
Seq(i6,i15,u4) 0
X(i6,i15,u4) 0
Seq(i7,i1,u1) 0
X(i7,i1,u1) 0
Seq(i7,i1,u4) 0
X(i7,i1,u4) 0
Seq(i7,i2,u1) 0
X(i7,i2,u1) 0
Seq(i7,i2,u4) 0
X(i7,i2,u4) 0
X(i7,i3,u1) 0
X(i7,i3,u4) 0
X(i7,i4,u3) 1
X(i7,i4,u4) 0
Seq(i7,i5,u3) 0
X(i7,i5,u3) 0
Seq(i7,i5,u4) 0
X(i7,i5,u4) 0
Seq(i7,i6,u1) 0
X(i7,i6,u1) 0
Seq(i7,i6,u4) 0
X(i7,i6,u4) 0
Seq(i7,i8,u3) 0
X(i7,i8,u3) 1
Seq(i7,i8,u4) 0
X(i7,i8,u4) 0
Seq(i7,i9,u3) 0
X(i7,i9,u3) 1
Seq(i7,i9,u4) 0
X(i7,i9,u4) 0
Seq(i7,i11,u4) 0
X(i7,i11,u4) 0
Seq(i7,i12,u3) 0
X(i7,i12,u3) 0
Seq(i7,i12,u4) 0
X(i7,i12,u4) 0
Seq(i7,i13,u1) 0
X(i7,i13,u1) 0
Seq(i7,i13,u4) 0
X(i7,i13,u4) 0
Seq(i7,i14,u1) 0
X(i7,i14,u1) 0
Seq(i7,i14,u4) 0
X(i7,i14,u4) 0
Seq(i7,i15,u1) 0
X(i7,i15,u1) 0
Seq(i7,i15,u4) 0
X(i7,i15,u4) 0
Seq(i8,i1,u4) 0
X(i8,i1,u4) 0
Seq(i8,i2,u4) 0
X(i8,i2,u4) 0
Seq(i8,i3,u4) 0
X(i8,i3,u4) 0
Seq(i8,i4,u3) 0
X(i8,i4,u3) 0
Seq(i8,i4,u4) 0
X(i8,i4,u4) 0
Seq(i8,i5,u3) 0
X(i8,i5,u3) 0
Seq(i8,i5,u4) 0
X(i8,i5,u4) 0
X(i8,i6,u4) 0
Seq(i8,i7,u3) 0
X(i8,i7,u3) 0
Seq(i8,i7,u4) 0
X(i8,i7,u4) 0
Seq(i8,i9,u3) 1
X(i8,i9,u3) 1
Seq(i8,i9,u4) 0
X(i8,i9,u4) 0
Seq(i8,i11,u4) 0
X(i8,i11,u4) 0
Seq(i8,i12,u3) 0
X(i8,i12,u3) 0
Seq(i8,i12,u4) 0
X(i8,i12,u4) 0
Seq(i8,i13,u4) 0
X(i8,i13,u4) 0
Seq(i8,i14,u4) 0
X(i8,i14,u4) 0
Seq(i8,i15,u4) 0
X(i8,i15,u4) 0
Seq(i9,i1,u4) 0
X(i9,i1,u4) 0
Seq(i9,i2,u4) 0
X(i9,i2,u4) 0
Seq(i9,i3,u4) 0
X(i9,i3,u4) 0
Seq(i9,i4,u3) 0
X(i9,i4,u3) 0
Seq(i9,i4,u4) 0
X(i9,i4,u4) 0
Seq(i9,i5,u3) 0
X(i9,i5,u3) 0
Seq(i9,i5,u4) 0
X(i9,i5,u4) 0
Seq(i9,i6,u4) 0
X(i9,i6,u4) 0
Seq(i9,i7,u3) 0
X(i9,i7,u3) 0
Seq(i9,i7,u4) 0
X(i9,i7,u4) 0
Seq(i9,i8,u3) 1
X(i9,i8,u3) 0
Seq(i9,i8,u4) 0
X(i9,i8,u4) 0
Seq(i9,i11,u4) 0
X(i9,i11,u4) 0
Seq(i9,i12,u3) 0
X(i9,i12,u3) 0
Seq(i9,i12,u4) 0
X(i9,i12,u4) 0
Seq(i9,i13,u4) 0
X(i9,i13,u4) 0
Seq(i9,i14,u4) 0
X(i9,i14,u4) 0
Seq(i9,i15,u4) 0
X(i9,i15,u4) 0
Seq(i10,i11,u2) 0
X(i10,i11,u2) 0
Seq(i10,i12,u2) 0
X(i10,i12,u2) 0
Seq(i11,i1,u4) 0
X(i11,i1,u4) 0
Seq(i11,i2,u4) 0
X(i11,i2,u4) 0
Seq(i11,i3,u4) 0
X(i11,i3,u4) 0
Seq(i11,i4,u4) 0
X(i11,i4,u4) 0
Seq(i11,i5,u4) 0
X(i11,i5,u4) 0
Seq(i11,i6,u4) 0
X(i11,i6,u4) 0
Seq(i11,i7,u4) 0
X(i11,i7,u4) 0
Seq(i11,i8,u4) 0
X(i11,i8,u4) 0
Seq(i11,i9,u4) 0
X(i11,i9,u4) 0
X(i11,i10,u2) 1
Seq(i11,i12,u2) 0
X(i11,i12,u2) 0
Seq(i11,i12,u4) 0
X(i11,i12,u4) 0
Seq(i11,i13,u4) 0
X(i11,i13,u4) 0
Seq(i11,i14,u4) 0
X(i11,i14,u4) 0
Seq(i11,i15,u4) 0
X(i11,i15,u4) 0
Seq(i12,i1,u4) 0
X(i12,i1,u4) 0
Seq(i12,i2,u4) 0
X(i12,i2,u4) 0
Seq(i12,i3,u4) 0
X(i12,i3,u4) 0
Seq(i12,i4,u3) 0
X(i12,i4,u3) 0
Seq(i12,i4,u4) 0
X(i12,i4,u4) 0
Seq(i12,i5,u3) 0
X(i12,i5,u3) 0
Seq(i12,i5,u4) 0
X(i12,i5,u4) 0
Seq(i12,i6,u4) 0
X(i12,i6,u4) 0
Seq(i12,i7,u3) 0
X(i12,i7,u3) 0
Seq(i12,i7,u4) 0
X(i12,i7,u4) 0
Seq(i12,i8,u3) 0
X(i12,i8,u3) 0
Seq(i12,i8,u4) 0
X(i12,i8,u4) 0
Seq(i12,i9,u3) 0
X(i12,i9,u3) 0
Seq(i12,i9,u4) 0
X(i12,i9,u4) 0
Seq(i12,i10,u2) 0
X(i12,i10,u2) 1
X(i12,i11,u2) 1
X(i12,i11,u4) 0
Seq(i12,i13,u4) 0
X(i12,i13,u4) 0
Seq(i12,i14,u4) 0
X(i12,i14,u4) 0
Seq(i12,i15,u4) 0
X(i12,i15,u4) 0
Seq(i13,i1,u1) 0
X(i13,i1,u1) 0
Seq(i13,i1,u4) 0
X(i13,i1,u4) 0
Seq(i13,i2,u1) 1
X(i13,i2,u1) 0
Seq(i13,i2,u4) 0
X(i13,i2,u4) 0
Seq(i13,i3,u1) 0
X(i13,i3,u1) 0
Seq(i13,i3,u4) 0
X(i13,i3,u4) 0
Seq(i13,i4,u4) 0
X(i13,i4,u4) 0
Seq(i13,i5,u4) 0
X(i13,i5,u4) 0
Seq(i13,i6,u1) 0
X(i13,i6,u1) 0
Seq(i13,i6,u4) 0
X(i13,i6,u4) 0
Seq(i13,i7,u1) 0
X(i13,i7,u1) 0
Seq(i13,i7,u4) 0
X(i13,i7,u4) 0
Seq(i13,i8,u4) 0
X(i13,i8,u4) 0
Seq(i13,i9,u4) 0
X(i13,i9,u4) 0
Seq(i13,i11,u4) 0
X(i13,i11,u4) 0
Seq(i13,i12,u4) 0
X(i13,i12,u4) 0
X(i13,i14,u1) 0
X(i13,i14,u4) 0
X(i13,i15,u1) 0
X(i13,i15,u4) 0
Seq(i14,i1,u1) 0
X(i14,i1,u1) 0
Seq(i14,i1,u4) 0
X(i14,i1,u4) 0
Seq(i14,i2,u1) 0
X(i14,i2,u1) 0
Seq(i14,i2,u4) 0
X(i14,i2,u4) 0
Seq(i14,i3,u1) 0
X(i14,i3,u1) 0
Seq(i14,i3,u4) 0
X(i14,i3,u4) 0
Seq(i14,i4,u4) 0
X(i14,i4,u4) 0
Seq(i14,i5,u4) 0
X(i14,i5,u4) 0
Seq(i14,i6,u1) 0
X(i14,i6,u1) 0
Seq(i14,i6,u4) 0
X(i14,i6,u4) 0
Seq(i14,i7,u1) 0
X(i14,i7,u1) 0
Seq(i14,i7,u4) 0
X(i14,i7,u4) 0
X(i14,i8,u4) 0
Seq(i14,i9,u4) 0
X(i14,i9,u4) 0
Seq(i14,i11,u4) 0
X(i14,i11,u4) 0
Seq(i14,i12,u4) 0
X(i14,i12,u4) 0
Seq(i14,i13,u1) 0
X(i14,i13,u1) 0
Seq(i14,i13,u4) 1
X(i14,i13,u4) 1
Seq(i14,i15,u1) 0
X(i14,i15,u1) 0
Seq(i14,i15,u4) 0
X(i14,i15,u4) 0
Seq(i15,i1,u1) 0
X(i15,i1,u1) 0
Seq(i15,i1,u4) 0
X(i15,i1,u4) 0
Seq(i15,i2,u1) 0
X(i15,i2,u1) 1
Seq(i15,i2,u4) 0
X(i15,i2,u4) 0
Seq(i15,i3,u1) 0
X(i15,i3,u1) 0
Seq(i15,i3,u4) 0
X(i15,i3,u4) 0
Seq(i15,i4,u4) 0
X(i15,i4,u4) 0
Seq(i15,i5,u4) 0
X(i15,i5,u4) 0
Seq(i15,i6,u1) 1
X(i15,i6,u1) 1
Seq(i15,i6,u4) 0
X(i15,i6,u4) 0
Seq(i15,i7,u1) 0
X(i15,i7,u1) 0
Seq(i15,i7,u4) 0
X(i15,i7,u4) 0
X(i15,i8,u4) 0
Seq(i15,i9,u4) 0
X(i15,i9,u4) 0
Seq(i15,i11,u4) 0
X(i15,i11,u4) 0
Seq(i15,i12,u4) 0
X(i15,i12,u4) 0
Seq(i15,i13,u1) 0
X(i15,i13,u1) 0
Seq(i15,i13,u4) 0
X(i15,i13,u4) 0
Seq(i15,i14,u1) 0
X(i15,i14,u1) 0
Seq(i15,i14,u4) 0
X(i15,i14,u4) 0
Pos(i1,i2,u1) 2
Pos(i1,i2,u4) 1000
Pos(i1,i3,u1) 1003
Pos(i1,i3,u4) 998
Pos(i1,i4,u4) 1000
Pos(i1,i5,u4) 997
Pos(i1,i6,u1) 1
Pos(i1,i6,u4) 1000
Pos(i1,i7,u1) 1003
Pos(i1,i7,u4) 1000
Pos(i1,i8,u4) 1000
Pos(i1,i9,u4) 1000
Pos(i1,i11,u4) 1000
Pos(i1,i12,u4) 1000
Pos(i1,i13,u1) 1003
Pos(i1,i13,u4) 1000
Pos(i1,i14,u1) 1003
Pos(i1,i14,u4) 999
Pos(i1,i15,u1) 0
Pos(i1,i15,u4) 1000
Pos(i2,i1,u1) 998
Pos(i2,i1,u4) 1000
Pos(i2,i3,u1) 1000
Pos(i2,i3,u4) 998
Pos(i2,i4,u4) 1000
Pos(i2,i5,u4) 997
Pos(i2,i6,u1) 1000
Pos(i2,i6,u4) 1000
Pos(i2,i7,u1) 1000
Pos(i2,i7,u4) 1000
Pos(i2,i8,u4) 1000
Pos(i2,i9,u4) 1000
Pos(i2,i11,u4) 1000
Pos(i2,i12,u4) 1000
Pos(i2,i13,u1) 1000
Pos(i2,i13,u4) 1000
Pos(i2,i14,u1) 1000
Pos(i2,i14,u4) 999
Pos(i2,i15,u1) 999
Pos(i2,i15,u4) 1000
Pos(i3,i1,u1) 997
Pos(i3,i1,u4) 1002
Pos(i3,i2,u1) 1000
Pos(i3,i2,u4) 1002
Pos(i3,i4,u4) 1002
Pos(i3,i5,u4) 1000
Pos(i3,i6,u1) 999
Pos(i3,i6,u4) 1002
Pos(i3,i7,u1) 1000
Pos(i3,i7,u4) 1002
Pos(i3,i8,u4) 1002
Pos(i3,i9,u4) 1002
Pos(i3,i11,u4) 1002
Pos(i3,i12,u4) 1002
Pos(i3,i13,u1) 1000
Pos(i3,i13,u4) 1
Pos(i3,i14,u1) 1000
Pos(i3,i14,u4) 0
Pos(i3,i15,u1) 998
Pos(i3,i15,u4) 1002
Pos(i4,i1,u4) 1000
Pos(i4,i2,u4) 1000
Pos(i4,i3,u4) 998
Pos(i4,i5,u3) 1002
Pos(i4,i5,u4) 997
Pos(i4,i6,u4) 1000
Pos(i4,i7,u3) 1000
Pos(i4,i7,u4) 1000
Pos(i4,i8,u3) 0
Pos(i4,i8,u4) 1000
Pos(i4,i9,u3) 1
Pos(i4,i9,u4) 1000
Pos(i4,i11,u4) 1000
Pos(i4,i12,u3) 1002
Pos(i4,i12,u4) 1000
Pos(i4,i13,u4) 1000
Pos(i4,i14,u4) 999
Pos(i4,i15,u4) 1000
Pos(i5,i1,u4) 1003
Pos(i5,i2,u4) 1003
Pos(i5,i3,u4) 0
Pos(i5,i4,u3) 998
Pos(i5,i4,u4) 1003
Pos(i5,i6,u4) 1003
Pos(i5,i7,u3) 997
Pos(i5,i7,u4) 1003
Pos(i5,i8,u3) 999
Pos(i5,i8,u4) 1003
Pos(i5,i9,u3) 1000
Pos(i5,i9,u4) 1003
Pos(i5,i11,u4) 1003
Pos(i5,i12,u3) 1000
Pos(i5,i12,u4) 1003
Pos(i5,i13,u4) 2
Pos(i5,i14,u4) 1
Pos(i5,i15,u4) 1003
Pos(i6,i1,u1) 999
Pos(i6,i1,u4) 1000
Pos(i6,i2,u1) 0
Pos(i6,i2,u4) 1000
Pos(i6,i3,u1) 1001
Pos(i6,i3,u4) 998
Pos(i6,i4,u4) 1000
Pos(i6,i5,u4) 997
Pos(i6,i7,u1) 1001
Pos(i6,i7,u4) 1000
Pos(i6,i8,u4) 1000
Pos(i6,i9,u4) 1000
Pos(i6,i11,u4) 1000
Pos(i6,i12,u4) 1000
Pos(i6,i13,u1) 1001
Pos(i6,i13,u4) 1000
Pos(i6,i14,u1) 1001
Pos(i6,i14,u4) 999
Pos(i6,i15,u1) 1000
Pos(i6,i15,u4) 1000
Pos(i7,i1,u1) 997
Pos(i7,i1,u4) 1000
Pos(i7,i2,u1) 1000
Pos(i7,i2,u4) 1000
Pos(i7,i3,u1) 1000
Pos(i7,i3,u4) 998
Pos(i7,i4,u3) 0
Pos(i7,i4,u4) 1000
Pos(i7,i5,u3) 1003
Pos(i7,i5,u4) 997
Pos(i7,i6,u1) 999
Pos(i7,i6,u4) 1000
Pos(i7,i8,u3) 1.0000000000028422e+00
Pos(i7,i8,u4) 1000
Pos(i7,i9,u3) 2
Pos(i7,i9,u4) 1000
Pos(i7,i11,u4) 1000
Pos(i7,i12,u3) 1003
Pos(i7,i12,u4) 1000
Pos(i7,i13,u1) 1000
Pos(i7,i13,u4) 1000
Pos(i7,i14,u1) 1000
Pos(i7,i14,u4) 999
Pos(i7,i15,u1) 998
Pos(i7,i15,u4) 1000
Pos(i8,i1,u4) 1000
Pos(i8,i2,u4) 1000
Pos(i8,i3,u4) 998
Pos(i8,i4,u3) 1000
Pos(i8,i4,u4) 1000
Pos(i8,i5,u3) 1001
Pos(i8,i5,u4) 997
Pos(i8,i6,u4) 1000
Pos(i8,i7,u3) 999
Pos(i8,i7,u4) 1000
Pos(i8,i9,u3) 0
Pos(i8,i9,u4) 1000
Pos(i8,i11,u4) 1000
Pos(i8,i12,u3) 1001
Pos(i8,i12,u4) 1000
Pos(i8,i13,u4) 1000
Pos(i8,i14,u4) 999
Pos(i8,i15,u4) 1000
Pos(i9,i1,u4) 1000
Pos(i9,i2,u4) 1000
Pos(i9,i3,u4) 998
Pos(i9,i4,u3) 999
Pos(i9,i4,u4) 1000
Pos(i9,i5,u3) 1000
Pos(i9,i5,u4) 997
Pos(i9,i6,u4) 1000
Pos(i9,i7,u3) 998
Pos(i9,i7,u4) 1000
Pos(i9,i8,u3) 1000
Pos(i9,i8,u4) 1000
Pos(i9,i11,u4) 1000
Pos(i9,i12,u3) 1000
Pos(i9,i12,u4) 1000
Pos(i9,i13,u4) 1000
Pos(i9,i14,u4) 999
Pos(i9,i15,u4) 1000
Pos(i10,i11,u2) 1000
Pos(i10,i12,u2) 999
Pos(i11,i1,u4) 1000
Pos(i11,i2,u4) 1000
Pos(i11,i3,u4) 998
Pos(i11,i4,u4) 1000
Pos(i11,i5,u4) 997
Pos(i11,i6,u4) 1000
Pos(i11,i7,u4) 1000
Pos(i11,i8,u4) 1000
Pos(i11,i9,u4) 1000
Pos(i11,i10,u2) 0
Pos(i11,i12,u2) 1000
Pos(i11,i12,u4) 1000
Pos(i11,i13,u4) 1000
Pos(i11,i14,u4) 999
Pos(i11,i15,u4) 1000
Pos(i12,i1,u4) 1000
Pos(i12,i2,u4) 1000
Pos(i12,i3,u4) 998
Pos(i12,i4,u3) 998
Pos(i12,i4,u4) 1000
Pos(i12,i5,u3) 1000
Pos(i12,i5,u4) 997
Pos(i12,i6,u4) 1000
Pos(i12,i7,u3) 997
Pos(i12,i7,u4) 1000
Pos(i12,i8,u3) 999
Pos(i12,i8,u4) 1000
Pos(i12,i9,u3) 1000
Pos(i12,i9,u4) 1000
Pos(i12,i10,u2) 1
Pos(i12,i11,u2) 0
Pos(i12,i11,u4) 1000
Pos(i12,i13,u4) 1000
Pos(i12,i14,u4) 999
Pos(i12,i15,u4) 1000
Pos(i13,i1,u1) 997
Pos(i13,i1,u4) 1000
Pos(i13,i2,u1) 1000
Pos(i13,i2,u4) 1000
Pos(i13,i3,u1) 1000
Pos(i13,i3,u4) 999
Pos(i13,i4,u4) 1000
Pos(i13,i5,u4) 998
Pos(i13,i6,u1) 999
Pos(i13,i6,u4) 1000
Pos(i13,i7,u1) 1000
Pos(i13,i7,u4) 1000
Pos(i13,i8,u4) 1000
Pos(i13,i9,u4) 1000
Pos(i13,i11,u4) 1000
Pos(i13,i12,u4) 1000
Pos(i13,i14,u1) 1000
Pos(i13,i14,u4) 1000
Pos(i13,i15,u1) 998
Pos(i13,i15,u4) 1000
Pos(i14,i1,u1) 997
Pos(i14,i1,u4) 1001
Pos(i14,i2,u1) 1000
Pos(i14,i2,u4) 1001
Pos(i14,i3,u1) 1000
Pos(i14,i3,u4) 1000
Pos(i14,i4,u4) 1001
Pos(i14,i5,u4) 999
Pos(i14,i6,u1) 999
Pos(i14,i6,u4) 1001
Pos(i14,i7,u1) 1000
Pos(i14,i7,u4) 1001
Pos(i14,i8,u4) 1001
Pos(i14,i9,u4) 1001
Pos(i14,i11,u4) 1001
Pos(i14,i12,u4) 1001
Pos(i14,i13,u1) 1000
Pos(i14,i13,u4) 0
Pos(i14,i15,u1) 998
Pos(i14,i15,u4) 1001
Pos(i15,i1,u1) 1000
Pos(i15,i1,u4) 1000
Pos(i15,i2,u1) 1
Pos(i15,i2,u4) 1000
Pos(i15,i3,u1) 1002
Pos(i15,i3,u4) 998
Pos(i15,i4,u4) 1000
Pos(i15,i5,u4) 997
Pos(i15,i6,u1) 0
Pos(i15,i6,u4) 1000
Pos(i15,i7,u1) 1002
Pos(i15,i7,u4) 1000
Pos(i15,i8,u4) 1000
Pos(i15,i9,u4) 1000
Pos(i15,i11,u4) 1000
Pos(i15,i12,u4) 1000
Pos(i15,i13,u1) 1002
Pos(i15,i13,u4) 1000
Pos(i15,i14,u1) 1002
Pos(i15,i14,u4) 999
Seq(i1,i3,u1) 0
Seq(i1,i3,u4) 0
Seq(i1,i7,u1) 0
Seq(i1,i7,u4) 0
Seq(i1,i9,u4) 0
Seq(i3,i14,u1) 0
Seq(i3,i14,u4) 1
Seq(i3,i15,u1) 0
Seq(i3,i15,u4) 0
Seq(i4,i8,u3) 1
Seq(i4,i8,u4) 0
Seq(i5,i3,u4) 1
Seq(i6,i2,u1) 1
Seq(i6,i2,u4) 0
Seq(i7,i3,u1) 0
Seq(i7,i3,u4) 0
Seq(i7,i4,u3) 1
Seq(i7,i4,u4) 0
Seq(i8,i6,u4) 0
Seq(i11,i10,u2) 1
Seq(i12,i11,u2) 1
Seq(i12,i11,u4) 0
Seq(i13,i14,u1) 0
Seq(i13,i14,u4) 0
Seq(i13,i15,u1) 0
Seq(i13,i15,u4) 0
Seq(i14,i8,u4) 0
Seq(i15,i8,u4) 0
